
List of user-set options:

                                    Name   Value                used
                           compl_inf_tol = 1                     yes
                         constr_viol_tol = 1                     yes
                            dual_inf_tol = 1000                  yes
                           linear_solver = ma97                  yes
                              ma86_small = 1e-30                  no
                                  ma86_u = 0.0001                 no
                              ma97_order = best                  yes
                              ma97_small = 1e-30                 yes
                            ma97_switch1 = at_start              yes
                            ma97_switch2 = od_hd_reuse           yes
                                  ma97_u = 1e-06                 yes
                               ma97_umax = 0.5                   yes
                                max_iter = 1000                  yes
                    max_refinement_steps = 20                    yes
                    min_refinement_steps = 5                     yes
                                 mu_init = 1e-06                 yes
           mu_superlinear_decrease_power = 1.25                  yes
                   nlp_scaling_min_value = 1e-08                 yes
                        option_file_name = Preset_Case_133_pf.opt  yes
                             output_file = ./tmp/Preset_Case_133_pf.output  yes
                      print_user_options = yes                   yes
        required_infeasibility_reduction = 1                      no
                                     tol = 1e-08                 yes
                   warm_start_bound_frac = 1e-20                 yes
                   warm_start_bound_push = 1e-20                 yes
                   warm_start_init_point = yes                   yes
              warm_start_mult_bound_push = 1e-20                 yes
                warm_start_mult_init_max = 1e+40                 yes
             warm_start_slack_bound_frac = 1e-20                 yes
             warm_start_slack_bound_push = 1e-20                 yes

******************************************************************************
This program contains Ipopt, a library for large-scale nonlinear optimization.
 Ipopt is released as open source code under the Eclipse Public License (EPL).
         For more information visit http://projects.coin-or.org/Ipopt
******************************************************************************

This is Ipopt version 3.12.10, running with linear solver ma97.

Number of nonzeros in equality constraint Jacobian...:   123443
Number of nonzeros in inequality constraint Jacobian.:      213
Number of nonzeros in Lagrangian Hessian.............:    49069

Total number of variables............................:    31591
                     variables with only lower bounds:    12912
                variables with lower and upper bounds:    15130
                     variables with only upper bounds:        0
Total number of equality constraints.................:    31483
Total number of inequality constraints...............:       25
        inequality constraints with only lower bounds:        4
   inequality constraints with lower and upper bounds:        0
        inequality constraints with only upper bounds:       21

iter    objective    inf_pr   inf_du lg(mu)  ||d||  lg(rg) alpha_du alpha_pr  ls
   0 -5.2576845e+00 4.01e-03 1.02e+00  -6.0 0.00e+00    -  0.00e+00 0.00e+00   0
   1 -5.2572250e+00 1.18e-01 2.03e+00  -6.0 4.67e+05    -  6.65e-05 1.13e-04h  4
   2 -5.2585024e+00 1.18e-01 5.04e+01  -6.0 3.95e+03    -  2.23e-01 1.22e-03h  1
   3 -5.3900735e+00 4.28e+00 2.41e+02  -6.0 3.94e+03    -  1.60e-01 1.26e-01f  1
   4 -5.4892983e+00 8.79e+00 3.56e+02  -6.0 4.70e+03    -  2.07e-01 1.16e-01h  1
   5 -5.6873561e+00 1.42e+01 6.40e+04  -6.0 1.90e+03    -  2.86e-01 3.85e-01h  1
   6 -5.7369016e+00 1.39e+01 4.73e+04  -6.0 2.16e+03    -  1.69e-01 1.61e-01h  1
   7 -5.7228048e+00 5.56e+00 1.12e+04  -6.0 1.05e+01  -4.0 1.98e-02 6.02e-01h  1
   8 -5.7222276e+00 1.75e+00 5.94e+03  -6.0 6.65e+00  -4.5 4.93e-01 6.85e-01h  1
   9r-5.7222276e+00 1.75e+00 1.00e+03   0.1 0.00e+00  -5.0 0.00e+00 4.84e-07R  2
iter    objective    inf_pr   inf_du lg(mu)  ||d||  lg(rg) alpha_du alpha_pr  ls
  10r-5.6709228e+00 1.75e+00 1.00e+03   0.1 2.77e+05    -  1.07e-06 2.39e-07f  1
  11r-5.6631462e+00 1.75e+00 9.99e+02   0.1 1.08e+04    -  8.12e-06 1.70e-06f  1
  12r-5.6573821e+00 1.73e+00 1.00e+03   0.1 5.43e+03    -  1.45e-06 1.27e-05f  1
  13 -5.6660378e+00 1.47e+00 2.33e+05  -6.0 1.65e+01    -  6.37e-07 1.48e-01h  1
  14 -5.6747935e+00 1.21e+00 1.92e+05  -6.0 2.99e+00    -  2.54e-01 1.77e-01h  1
  15 -5.7009342e+00 4.43e-01 7.02e+04  -6.0 2.50e+00    -  5.79e-01 6.34e-01h  1
  16 -5.7150358e+00 9.75e-02 1.54e+04  -6.0 2.20e+00    -  8.09e-01 7.80e-01h  1
  17 -5.7320454e+00 3.07e-02 1.12e+03  -6.0 1.34e+01    -  4.28e-01 9.27e-01h  1
  18 -5.7571864e+00 1.31e-01 2.83e+02  -6.0 1.98e+01    -  7.92e-01 1.00e+00f  1
  19 -5.7652351e+00 1.31e-01 2.59e+02  -6.0 6.37e+01    -  5.29e-01 1.18e-01h  1
iter    objective    inf_pr   inf_du lg(mu)  ||d||  lg(rg) alpha_du alpha_pr  ls
  20 -5.8154127e+00 5.06e-01 1.77e+02  -6.0 9.63e+01    -  6.81e-01 5.11e-01h  1
  21 -5.8339713e+00 4.20e-01 4.04e+02  -6.0 1.87e+02    -  6.58e-01 2.14e-01h  1
  22 -5.8817724e+00 4.24e-01 3.68e+02  -6.0 2.99e+02    -  7.24e-01 4.32e-01h  1
  23 -5.8913865e+00 4.36e-01 6.39e+02  -6.0 3.42e+02    -  4.74e-01 1.42e-01h  1
  24 -5.9082375e+00 1.00e+00 5.53e+02  -6.0 4.39e+02    -  4.70e-01 3.50e-01h  1
  25 -5.9096878e+00 5.25e-01 1.75e+04  -6.0 1.33e+02  -5.4 3.04e-04 9.72e-01h  1
  26 -5.9140144e+00 5.28e-02 6.07e+02  -6.0 1.90e+01  -5.9 5.39e-01 1.00e+00h  1
  27 -5.9174303e+00 6.09e-02 1.33e+03  -6.0 4.27e+01  -6.4 9.94e-01 5.80e-01h  1
  28 -5.9211419e+00 7.25e-02 1.84e+03  -6.0 7.53e+01  -6.9 4.98e-01 4.00e-01h  1
  29 -5.9353834e+00 4.64e+00 1.17e+04  -6.0 6.26e+02  -7.3 1.78e-01 8.13e-01h  1
iter    objective    inf_pr   inf_du lg(mu)  ||d||  lg(rg) alpha_du alpha_pr  ls
  30 -5.9393849e+00 4.59e+00 1.09e+04  -6.0 1.13e+04  -7.8 1.62e-02 1.20e-02h  1
  31 -5.9585192e+00 5.27e+00 4.59e+03  -6.0 2.06e+04    -  3.73e-03 2.31e-02h  1
  32 -5.9590777e+00 5.16e+00 3.79e+04  -6.0 4.97e+02  -7.4 5.97e-01 1.97e-02h  1
  33 -6.0201025e+00 1.80e+01 1.55e+04  -6.0 1.72e+03    -  5.12e-01 1.00e+00h  1
  34 -6.0196854e+00 1.55e+01 3.48e+04  -6.0 4.10e+02    -  3.05e-01 1.36e-01h  1
  35 -6.0192250e+00 1.21e+01 2.60e+05  -6.0 4.61e+02    -  9.23e-01 2.21e-01h  1
  36r-6.0192250e+00 1.21e+01 1.00e+03   0.9 0.00e+00    -  0.00e+00 2.71e-07R  5
  37r-6.0332504e+00 1.21e+01 1.90e+03   0.9 3.25e+04    -  7.54e-07 4.20e-07f  1
  38 -6.0289084e+00 1.03e+01 8.27e+04  -6.0 1.08e+01    -  9.35e-02 1.45e-01h  1
  39 -6.0234165e+00 8.15e+00 3.29e+03  -6.0 8.07e+00    -  1.45e-01 2.11e-01h  1
iter    objective    inf_pr   inf_du lg(mu)  ||d||  lg(rg) alpha_du alpha_pr  ls
  40 -6.0073476e+00 1.88e+00 7.56e+02  -6.0 5.77e+00    -  3.32e-01 7.70e-01h  1
  41 -6.0045149e+00 8.28e-01 3.32e+02  -6.0 1.14e+00    -  9.39e-01 5.60e-01h  1
  42 -6.0044563e+00 6.38e-01 2.55e+02  -6.0 4.51e+00    -  8.48e-01 2.30e-01h  1
  43 -6.0039063e+00 3.36e-03 1.76e+01  -6.0 4.08e+00  -5.2 9.44e-01 1.00e+00h  1
  44 -6.0149106e+00 1.24e+00 1.34e+01  -6.0 4.34e+02    -  4.11e-01 4.81e-01h  1
  45 -6.0126555e+00 1.71e-01 6.63e+05  -6.0 7.34e+01    -  9.19e-02 9.84e-01h  1
  46 -6.0128768e+00 3.62e-03 7.27e+02  -6.0 1.15e+01  -5.6 9.97e-01 1.00e+00h  1
  47 -6.0146525e+00 2.50e-02 6.98e-01  -6.0 2.98e+01  -6.1 9.98e-01 1.00e+00h  1
  48 -6.0275803e+00 1.39e+00 1.40e+01  -6.0 5.31e+03    -  3.61e-02 4.16e-02h  1
  49 -6.0263550e+00 1.20e+00 6.02e+02  -6.0 6.11e+02    -  1.98e-01 7.51e-01h  1
iter    objective    inf_pr   inf_du lg(mu)  ||d||  lg(rg) alpha_du alpha_pr  ls
  50 -6.0297587e+00 2.97e-01 1.43e+01  -6.0 9.21e+01  -6.6 1.00e+00 1.00e+00h  1
  51 -6.0295484e+00 2.42e-01 1.19e+01  -6.0 3.39e+00  -4.4 8.31e-01 1.86e-01h  1
  52 -6.0357281e+00 4.42e-01 1.07e+03  -6.0 2.61e+02    -  1.00e+00 6.80e-01h  1
  53 -6.0360433e+00 3.77e-01 5.71e+03  -6.0 2.24e+02    -  5.64e-01 2.03e-01h  1
  54 -6.0386732e+00 2.63e-01 1.42e+04  -6.0 1.60e+02    -  3.75e-01 9.85e-01h  1
  55 -6.0394969e+00 2.18e-01 2.87e+04  -6.0 1.96e+02    -  6.31e-01 1.84e-01h  1
  56 -6.0449641e+00 1.26e-01 8.46e+02  -6.0 2.03e+02    -  1.00e+00 1.00e+00h  1
  57 -6.0479812e+00 1.11e-01 3.27e+04  -6.0 2.76e+02    -  3.67e-01 2.80e-01h  1
  58 -6.0576428e+00 2.23e-01 3.13e+05  -6.0 3.16e+02    -  2.67e-01 7.56e-01h  1
  59r-6.0576428e+00 2.23e-01 1.00e+03  -0.8 0.00e+00    -  0.00e+00 4.85e-07R  2
iter    objective    inf_pr   inf_du lg(mu)  ||d||  lg(rg) alpha_du alpha_pr  ls
  60r-6.0640699e+00 2.21e-01 1.00e+03  -0.8 6.49e+03    -  1.74e-05 7.95e-06f  1
  61 -6.0633337e+00 1.93e-01 1.12e+06  -6.0 4.48e-01    -  8.21e-01 1.26e-01h  1
  62 -6.0625799e+00 8.81e-02 4.89e+06  -6.0 1.53e+00    -  1.26e-01 5.44e-01h  1
  63 -6.0638720e+00 1.11e-03 1.96e+02  -6.0 1.27e+00    -  5.40e-01 1.00e+00h  1
  64 -6.0684719e+00 2.41e-03 2.07e+01  -6.0 1.66e+00    -  7.28e-01 1.00e+00h  1
  65 -6.0722248e+00 3.88e-03 2.44e+00  -6.0 2.65e+00    -  8.82e-01 1.00e+00h  1
  66 -6.0725542e+00 4.54e-03 1.96e+01  -6.0 1.17e+01    -  5.85e-01 1.00e+00h  1
  67 -6.0727151e+00 7.34e-03 4.61e+00  -6.0 1.75e+01    -  8.99e-01 1.00e+00h  1
  68 -6.0728518e+00 7.26e-03 2.52e+01  -6.0 4.43e+01  -4.8 5.36e-02 1.17e-02h  1
  69 -6.0734157e+00 6.74e-03 2.29e+03  -6.0 9.89e+01    -  9.39e-01 3.01e-01h  1
iter    objective    inf_pr   inf_du lg(mu)  ||d||  lg(rg) alpha_du alpha_pr  ls
  70 -6.0754409e+00 9.40e-02 3.16e+03  -6.0 4.02e+02    -  6.42e-01 3.62e-01f  1
  71 -6.0804602e+00 5.24e-01 1.57e+03  -6.0 3.83e+02    -  8.84e-01 1.00e+00h  1
  72 -6.0816174e+00 4.13e-01 1.55e+04  -6.0 2.65e+02    -  4.38e-01 2.17e-01h  1
  73 -6.0875806e+00 3.84e-02 1.73e+03  -6.0 2.61e+02    -  9.91e-01 1.00e+00h  1
  74 -6.0905390e+00 3.14e-02 3.52e+04  -6.0 2.89e+02    -  3.57e-01 2.70e-01h  1
  75 -6.0992446e+00 4.02e-02 2.36e+05  -6.0 3.33e+02    -  1.00e+00 6.71e-01h  1
  76r-6.0992446e+00 4.02e-02 1.00e+03  -1.6 0.00e+00    -  0.00e+00 3.84e-07R  2
  77r-6.0974465e+00 3.84e-02 1.00e+03  -1.6 3.30e+03    -  1.01e-04 4.46e-05f  1
  78 -6.0976685e+00 3.33e-02 9.58e+05  -6.0 3.11e-01    -  7.25e-01 1.32e-01h  1
  79 -6.0991530e+00 1.80e-02 3.43e+06  -6.0 1.09e+00    -  1.32e-01 4.59e-01h  1
iter    objective    inf_pr   inf_du lg(mu)  ||d||  lg(rg) alpha_du alpha_pr  ls
  80 -6.1017826e+00 3.45e-04 7.28e+01  -6.0 1.01e+00    -  8.01e-01 1.00e+00h  1
  81 -6.1071664e+00 3.42e-03 1.89e+01  -6.0 1.98e+00    -  7.60e-01 1.00e+00h  1
  82 -6.1091199e+00 2.58e-03 2.24e+00  -6.0 3.79e+00    -  9.18e-01 1.00e+00h  1
  83 -6.1080735e+00 4.46e-05 1.18e+04  -6.0 1.70e+01    -  9.57e-01 1.00e+00H  1
  84 -6.1084798e+00 3.61e-04 3.50e+04  -6.0 1.10e+02    -  9.73e-01 1.00e+00H  1
  85 -6.1088016e+00 7.62e-04 1.75e+04  -6.0 2.05e+02    -  9.66e-01 1.00e+00H  1
  86 -6.1088085e+00 1.03e-04 1.53e-02  -6.0 9.74e+00    -  1.00e+00 1.00e+00h  1
  87 -6.1088074e+00 9.71e-09 9.70e-07  -6.0 6.64e-02    -  1.00e+00 1.00e+00h  1
  88 -6.1088851e+00 7.15e-03 4.22e+01  -7.5 4.80e+01    -  9.46e-01 7.99e-01h  1
  89 -6.1088856e+00 1.06e-03 4.93e+00  -7.5 1.06e+01    -  1.00e+00 9.15e-01h  1
iter    objective    inf_pr   inf_du lg(mu)  ||d||  lg(rg) alpha_du alpha_pr  ls
  90 -6.1088847e+00 3.85e-06 2.92e-03  -7.5 9.07e-01    -  1.00e+00 1.00e+00h  1
  91 -6.1088847e+00 2.84e-10 2.00e-10  -7.5 9.29e-05    -  1.00e+00 1.00e+00h  1
  92 -6.1088863e+00 8.61e-06 6.85e-01  -9.0 1.58e+00    -  9.20e-01 8.45e-01h  1
  93 -6.1088866e+00 2.93e-07 2.51e-01  -9.0 2.46e-01    -  9.40e-01 1.00e+00f  1
  94 -6.1088866e+00 2.49e-10 3.40e-08  -9.0 6.18e-05    -  1.00e+00 1.00e+00h  1
  95 -6.1088866e+00 2.84e-10 1.73e-09  -9.0 1.57e-05    -  1.00e+00 1.00e+00h  1

Number of Iterations....: 95

                                   (scaled)                 (unscaled)
Objective...............:  -4.7725676272064872e+00   -6.1088865628243036e+00
Dual infeasibility......:   1.7316849783299069e-09    2.2165567722622810e-09
Constraint violation....:   2.8396154091309134e-10    2.8396154091309134e-10
Complementarity.........:   9.4054294479998186e-10    1.2038949693439768e-09
Overall NLP error.......:   1.7316849783299069e-09    2.2165567722622810e-09


Number of objective function evaluations             = 115
Number of objective gradient evaluations             = 94
Number of equality constraint evaluations            = 115
Number of inequality constraint evaluations          = 115
Number of equality constraint Jacobian evaluations   = 100
Number of inequality constraint Jacobian evaluations = 100
Number of Lagrangian Hessian evaluations             = 95
Total CPU secs in IPOPT (w/o function evaluations)   =    196.245
Total CPU secs in NLP function evaluations           =      3.647

EXIT: Optimal Solution Found.
